10 45 5
0 1 0.37
0 2 0.30
0 3 13.52
0 4 1.80
0 5 7.00
0 6 1.46
0 7 18.96
0 8 1.94
0 9 0.66
1 2 0.08
1 3 19.63
1 4 2.75
1 5 17.90
1 6 0.15
1 7 19.09
1 8 14.30
1 9 4.76
2 3 0.89
2 4 1.24
2 5 1.62
2 6 0.26
2 7 1.46
2 8 1.57
2 9 4.33
3 4 0.72
3 5 19.67
3 6 14.81
3 7 2.23
3 8 3.26
3 9 2.84
4 5 0.67
4 6 0.23
4 7 18.20
4 8 0.64
4 9 13.14
5 6 0.22
5 7 6.18
5 8 19.14
5 9 9.61
6 7 0.92
6 8 0.70
6 9 14.09
7 8 0.07
7 9 17.37
8 9 0.23
0
2
4
6
8
